computational_data/real_data/logs/iris_trial_017.log
Welcome to the CBC MILP Solver 
Version: 2.10.12 
Build Date: Aug 20 2024 

command line - /opt/homebrew/bin/cbc computational_data/real_data/lp/iris_trial_017.lp seconds 10.0 solve solu computational_data/real_data/solutions/iris_trial_017.sol (default strategy 1)
seconds was changed from 1e+100 to 10
Continuous objective value is 5.65152 - 0.00 seconds
Cgl0003I 0 fixed, 0 tightened bounds, 89 strengthened rows, 4 substitutions
Cgl0003I 0 fixed, 0 tightened bounds, 83 strengthened rows, 0 substitutions
Cgl0003I 0 fixed, 0 tightened bounds, 82 strengthened rows, 0 substitutions
Cgl0003I 0 fixed, 0 tightened bounds, 79 strengthened rows, 0 substitutions
Cgl0003I 0 fixed, 0 tightened bounds, 79 strengthened rows, 0 substitutions
Cgl0003I 0 fixed, 0 tightened bounds, 69 strengthened rows, 0 substitutions
Cgl0003I 0 fixed, 0 tightened bounds, 36 strengthened rows, 0 substitutions
Cgl0003I 0 fixed, 0 tightened bounds, 20 strengthened rows, 0 substitutions
Cgl0003I 0 fixed, 0 tightened bounds, 18 strengthened rows, 0 substitutions
Cgl0004I processed model has 97 rows, 26 columns (26 integer (26 of which binary)) and 765 elements
Cutoff increment increased from 1e-05 to 0.9999
Cbc0038I Initial state - 26 integers unsatisfied sum - 3.31818
Cbc0038I Pass   1: suminf.    3.31818 (26) obj. 6.31818 iterations 0
Cbc0038I Pass   2: suminf.    0.00000 (0) obj. 7 iterations 29
Cbc0038I Solution found of 7
Cbc0038I Before mini branch and bound, 0 integers at bound fixed and 0 continuous
Cbc0038I Mini branch and bound did not improve solution (0.01 seconds)
Cbc0038I After 0.01 seconds - Feasibility pump exiting with objective of 7 - took 0.00 seconds
Cbc0012I Integer solution of 7 found by feasibility pump after 0 iterations and 0 nodes (0.01 seconds)
Cbc0001I Search completed - best objective 7, took 0 iterations and 0 nodes (0.01 seconds)
Cbc0035I Maximum depth 0, 0 variables fixed on reduced cost
Cuts at root node changed objective from 6.31818 to 6.31818
Probing was tried 0 times and created 0 cuts of which 0 were active after adding rounds of cuts (0.000 seconds)
Gomory was tried 0 times and created 0 cuts of which 0 were active after adding rounds of cuts (0.000 seconds)
Knapsack was tried 0 times and created 0 cuts of which 0 were active after adding rounds of cuts (0.000 seconds)
Clique was tried 0 times and created 0 cuts of which 0 were active after adding rounds of cuts (0.000 seconds)
MixedIntegerRounding2 was tried 0 times and created 0 cuts of which 0 were active after adding rounds of cuts (0.000 seconds)
FlowCover was tried 0 times and created 0 cuts of which 0 were active after adding rounds of cuts (0.000 seconds)
TwoMirCuts was tried 0 times and created 0 cuts of which 0 were active after adding rounds of cuts (0.000 seconds)
ZeroHalf was tried 0 times and created 0 cuts of which 0 were active after adding rounds of cuts (0.000 seconds)

Result - Optimal solution found

Objective value:                7.00000000
Enumerated nodes:               0
Total iterations:               0
Time (CPU seconds):             0.01
Time (Wallclock seconds):       0.01

Total time (CPU seconds):       0.01   (Wallclock seconds):       0.01

